NAME Master
ROWS
 N  OBJ
 G  R0      
 G  R1      
 G  R2      
 G  R3      
COLUMNS
    C0        R0        1
    C0        R1        1
    C1        R0        1
    C1        R1        3
    C2        R0        3
    C2        R1        5
    C3        R0        1
    C3        R1        6
    C4        R2        1
    C4        R3        1
RHS
    RHS1      R0        10
    RHS1      R1        10
BOUNDS
ENDATA
